
<<< setup


<<< generate

Version identifier: 22.1.1.0 | 2022-11-28 | 9160aff4d
CPXPARAM_TimeLimit                               1800
Found incumbent of value 0.000000 after 0.00 sec. (9.35 ticks)
Tried aggregator 1 time.
MIP Presolve eliminated 721 rows and 18 columns.
MIP Presolve modified 491364 coefficients.
Reduced MIP has 307107 rows, 246735 columns, and 1105578 nonzeros.
Reduced MIP has 246033 binaries, 702 generals, 0 SOSs, and 0 indicators.
Presolve time = 0.28 sec. (509.54 ticks)
Probing time = 0.14 sec. (71.07 ticks)
Tried aggregator 1 time.
Detecting symmetries...
Reduced MIP has 307107 rows, 246735 columns, and 1105578 nonzeros.
Reduced MIP has 246033 binaries, 702 generals, 0 SOSs, and 0 indicators.
Presolve time = 1.98 sec. (1616.27 ticks)
Probing time = 0.10 sec. (70.87 ticks)
Clique table members: 13696.
MIP emphasis: balance optimality and feasibility.
MIP search method: dynamic search.
Parallel mode: deterministic, using up to 8 threads.
Root relaxation solution time = 98.84 sec. (81283.17 ticks)

        Nodes                                         Cuts/
   Node  Left     Objective  IInf  Best Integer    Best Bound    ItCnt     Gap

*     0+    0                            0.0000    16930.0000              --- 
*     0+    0                          100.0000    16930.0000              --- 
      0     0    16930.0000 122908      100.0000    16930.0000   173114     --- 
      0     0    16930.0000 109869      100.0000   Cuts: 10000   182671     --- 
*     0+    0                         2868.0000    16930.0000           490.31%
      0     0    16930.0000 77490     2868.0000    Cuts: 9998   203176  490.31%
      0     0    16930.0000 74494     2868.0000    Cuts: 1610   209805  490.31%
*     0+    0                         2927.0000    16930.0000           478.41%
      0     0        cutoff           2927.0000    16930.0000   209805  478.41%
      0     0    16930.0000 73671     2927.0000    Cuts: 1349   213038  478.41%
      0     0    16930.0000 73683     2927.0000    Cuts: 1202   215502  478.41%
      0     0    16930.0000 41163     2927.0000     Cuts: 249   225804  478.41%
      0     0    16930.0000 40927     2927.0000     Cuts: 742   228445  478.41%
      0     0    16930.0000 38934     2927.0000     Cuts: 462   232875  478.41%
      0     0    16930.0000 39508     2927.0000    Cuts: 1430   248110  478.41%
Heuristic still looking.
*     0+    0                         8408.0000    16930.0000           101.36%
*     0+    0                         8829.0000    16930.0000            91.75%
*     0+    0                         9093.0000    16930.0000            86.19%
*     0+    0                         9297.0000    16930.0000            82.10%
*     0+    0                         9392.0000    16930.0000            80.26%
*     0+    0                         9448.0000    16930.0000            79.19%
*     0+    0                         9470.0000    16930.0000            78.78%
      0     0        cutoff           9470.0000    16930.0000   248110   78.78%
      0     2    16930.0000 28393     9470.0000    16930.0000   248110   78.78%
Elapsed time = 444.47 sec. (643555.21 ticks, tree = 0.02 MB, solutions = 11)
      1     3    16930.0000 25724     9470.0000    16930.0000   253907   78.78%
      2     4    16930.0000 25634     9470.0000    16930.0000   262685   78.78%
      3     5    16930.0000 25540     9470.0000    16930.0000   263230   78.78%
      4     6    16930.0000 25538     9470.0000    16930.0000   263242   78.78%
*     5+    1                         9536.0000    16930.0000            77.54%
      5     3    16930.0000 24819     9536.0000    16930.0000   259587   77.54%
      6     6    16930.0000 25277     9536.0000    16930.0000   263668   77.54%
      7     7    16930.0000 25480     9536.0000    16930.0000   263332   77.54%
      8     7    16930.0000 28870     9536.0000    16930.0000   280645   77.54%
      9     9    16930.0000 26494     9536.0000    16930.0000   287086   77.54%
     10    12    16930.0000 26272     9536.0000    16930.0000   305104   77.54%
Elapsed time = 712.78 sec. (800198.90 ticks, tree = 0.11 MB, solutions = 16)
*    11+    6                         9573.0000    16930.0000            76.85%
*    11+    6                         9587.0000    16930.0000            76.59%
     11     8    16930.0000 25490     9587.0000    16930.0000   284605   76.59%
     12    14    16930.0000 25752     9587.0000    16930.0000   315311   76.59%
     14    16    16930.0000 25922     9587.0000    16930.0000   315503   76.59%
     15    11    16930.0000 28665     9587.0000    16930.0000   309079   76.59%
     16     9    16930.0000 26928     9587.0000    16930.0000   287916   76.59%
     18    17    16930.0000 26862     9587.0000    16930.0000   344336   76.59%
     20     5    16930.0000 27148     9587.0000    16930.0000   274745   76.59%
     21    17    16930.0000 27759     9587.0000    16930.0000   330191   76.59%
     22    13    16930.0000 28702     9587.0000    16930.0000   326466   76.59%
     24    17    16930.0000 26807     9587.0000    16930.0000   360320   76.59%
Elapsed time = 821.53 sec. (876736.27 ticks, tree = 0.30 MB, solutions = 17)
     25     4    16930.0000 28925     9587.0000    16930.0000   270392   76.59%
     27    23    16930.0000 25539     9587.0000    16930.0000   373894   76.59%
     28    22    16930.0000 27704     9587.0000    16930.0000   393382   76.59%
     30    25    16930.0000 25390     9587.0000    16930.0000   374909   76.59%
     31    26    16930.0000 25328     9587.0000    16930.0000   375375   76.59%
     32    27    16930.0000 25526     9587.0000    16930.0000   375958   76.59%
     34    19    16930.0000 26170     9587.0000    16930.0000   354725   76.59%
     35    18    16930.0000 26646     9587.0000    16930.0000   364286   76.59%
     39    22    16930.0000 26172     9587.0000    16930.0000   364780   76.59%
     44    26    16930.0000 25967     9587.0000    16930.0000   365135   76.59%
Elapsed time = 845.68 sec. (896588.92 ticks, tree = 3.51 MB, solutions = 17)
     46    24    16930.0000 27674     9587.0000    16930.0000   398524   76.59%
     50    26    16930.0000 27660     9587.0000    16930.0000   398758   76.59%
     51    23    16930.0000 28182     9587.0000    16930.0000   412738   76.59%
     53    28    16930.0000 27753     9587.0000    16930.0000   399516   76.59%
     56    10    16930.0000 29204     9587.0000    16930.0000   304694   76.59%
     60    30    16930.0000 27557     9587.0000    16930.0000   399879   76.59%
     63    26    16930.0000 27155     9587.0000    16930.0000   413589   76.59%
     64    32    16930.0000 27271     9587.0000    16930.0000   400559   76.59%
     66    27    16930.0000 27223     9587.0000    16930.0000   414135   76.59%
     67    24    16930.0000 29207     9587.0000    16930.0000   439011   76.59%
Elapsed time = 869.44 sec. (909936.76 ticks, tree = 2.90 MB, solutions = 17)
     68    28    16930.0000 27068     9587.0000    16930.0000   414769   76.59%
     69    30    16930.0000 24383     9587.0000    16930.0000   382926   76.59%
     71    31    16930.0000 23675     9587.0000    16930.0000   383097   76.59%
     74    31    16930.0000 27598     9587.0000    16930.0000   415909   76.59%
     76    34    16930.0000 26235     9587.0000    16930.0000   402557   76.59%
     78    27    16930.0000 28907     9587.0000    16930.0000   474912   76.59%
     80    32    16930.0000 27270     9587.0000    16930.0000   416610   76.59%
     84    36    16930.0000 26126     9587.0000    16930.0000   403653   76.59%
     86    37    16930.0000 26330     9587.0000    16930.0000   403965   76.59%
     89    36    16930.0000 27267     9587.0000    16930.0000   417591   76.59%
Elapsed time = 887.88 sec. (923142.64 ticks, tree = 34.46 MB, solutions = 17)
     93    56    16930.0000 26088     9587.0000    16930.0000   503698   76.59%
     96    28    16930.0000 29401     9587.0000    16930.0000   476799   76.59%
     99    15    16930.0000 29020     9587.0000    16930.0000   348334   76.59%
    100    40    16930.0000 24963     9587.0000    16930.0000   495164   76.59%
    109    61    16930.0000 25829     9587.0000    16930.0000   504498   76.59%
    112    32    16930.0000 29406     9587.0000    16930.0000   478088   76.59%
    114    65    16930.0000 25655     9587.0000    16930.0000   504720   76.59%
    120    70    16930.0000 25645     9587.0000    16930.0000   504730   76.59%
    123    73    16930.0000 25357     9587.0000    16930.0000   504956   76.59%
    126    74    16930.0000 25355     9587.0000    16930.0000   504958   76.59%
Elapsed time = 910.24 sec. (934540.97 ticks, tree = 85.47 MB, solutions = 17)
    133    77    16930.0000 25349     9587.0000    16930.0000   504964   76.59%
    140    81    16930.0000 25231     9587.0000    16930.0000   505052   76.59%
    143    69    16930.0000 23901     9587.0000    16930.0000   551013   76.59%
    145    20    16930.0000 28002     9587.0000    16930.0000   370747   76.59%
    146    73    16930.0000 26184     9587.0000    16930.0000   569714   76.59%
    147    71    16930.0000 24024     9587.0000    16930.0000   551872   76.59%
    151    74    16930.0000 23954     9587.0000    16930.0000   552510   76.59%
    153    76    16930.0000 26137     9587.0000    16930.0000   571199   76.59%
    154    75    16930.0000 23679     9587.0000    16930.0000   553298   76.59%
    157    77    16930.0000 24081     9587.0000    16930.0000   553958   76.59%
Elapsed time = 959.19 sec. (965436.97 ticks, tree = 71.15 MB, solutions = 17)
    159    78    16930.0000 25983     9587.0000    16930.0000   571954   76.59%
    162    80    16930.0000 25925     9587.0000    16930.0000   572358   76.59%
    166    84    16930.0000 25791     9587.0000    16930.0000   572584   76.59%
    170    87    16930.0000 25689     9587.0000    16930.0000   572806   76.59%
    172    89    16930.0000 25685     9587.0000    16930.0000   572810   76.59%
    176    93    16930.0000 25677     9587.0000    16930.0000   572818   76.59%
    179    96    16930.0000 25469     9587.0000    16930.0000   573104   76.59%
    180    33    16930.0000 28901     9587.0000    16930.0000   478090   76.59%
    182    83    16930.0000 28901     9587.0000    16930.0000   573417   76.59%
    184    85    16930.0000 28901     9587.0000    16930.0000   573655   76.59%
Elapsed time = 1009.48 sec. (999116.55 ticks, tree = 65.93 MB, solutions = 17)
    186    87    16930.0000 28897     9587.0000    16930.0000   573660   76.59%
    190    91    16930.0000 28893     9587.0000    16930.0000   573669   76.59%
    194    93    16930.0000 28893     9587.0000    16930.0000   573673   76.59%
    198    87    16930.0000 28851     9587.0000    16930.0000   574866   76.59%
    202    89    16930.0000 29339     9587.0000    16930.0000   575468   76.59%
    205    92    16930.0000 28903     9587.0000    16930.0000   575855   76.59%
    207    98    16930.0000 29069     9587.0000    16930.0000   575000   76.59%
    210    95    16930.0000 28695     9587.0000    16930.0000   576586   76.59%
    212    96    16930.0000 28634     9587.0000    16930.0000   576999   76.59%
    215   102    16930.0000 29359     9587.0000    16930.0000   576437   76.59%
Elapsed time = 1027.05 sec. (1016368.65 ticks, tree = 101.54 MB, solutions = 17)
    218    99    16930.0000 28089     9587.0000    16930.0000   577988   76.59%
    222   105    16930.0000 28785     9587.0000    16930.0000   577479   76.59%
    226   103    16930.0000 27657     9587.0000    16930.0000   578438   76.59%
    228   104    16930.0000 27322     9587.0000    16930.0000   578649   76.59%
    231   105    16930.0000 27260     9587.0000    16930.0000   578718   76.59%
    234   108    16930.0000 27201     9587.0000    16930.0000   578905   76.59%
    238   111    16930.0000 26864     9587.0000    16930.0000   579189   76.59%
    241   113    16930.0000 26730     9587.0000    16930.0000   579352   76.59%
    243    91    16930.0000 24516     9587.0000    16930.0000   581815   76.59%
    257   121    16930.0000 26007     9587.0000    16930.0000   580253   76.59%
Elapsed time = 1043.40 sec. (1032910.09 ticks, tree = 144.28 MB, solutions = 17)
    268   127    16930.0000 25598     9587.0000    16930.0000   580920   76.59%
    284   116    16930.0000 28372     9587.0000    16930.0000   582732   76.59%
    294   112    16930.0000 23931     9587.0000    16930.0000   584531   76.59%
    297   115    16930.0000 23774     9587.0000    16930.0000   585617   76.59%
    300    97    16930.0000 25467     9587.0000    16930.0000   573106   76.59%
    309   160    16930.0000 25861     9587.0000    16930.0000   593769   76.59%
    316   165    16930.0000 25087     9587.0000    16930.0000   594000   76.59%
    325   172    16930.0000 25001     9587.0000    16930.0000   594684   76.59%
    333   173    16930.0000 23762     9587.0000    16930.0000   609503   76.59%
    349   200    16930.0000 24807     9587.0000    16930.0000   607614   76.59%
Elapsed time = 1109.50 sec. (1076203.08 ticks, tree = 263.54 MB, solutions = 17)
    367   209    16930.0000 24602     9587.0000    16930.0000   608039   76.59%
    384   183    16930.0000 23459     9587.0000    16930.0000   611976   76.59%
    398   223    16930.0000 24036     9587.0000    16930.0000   609451   76.59%
    412   252    16930.0000 23483     9587.0000    16930.0000   612577   76.59%
    441   196    16930.0000 22645     9587.0000    16930.0000   613865   76.59%
    464   248    16930.0000 23361     9587.0000    16930.0000   610396   76.59%
    489   280    16930.0000 23271     9587.0000    16930.0000   613236   76.59%
    509   289    16930.0000 21857     9587.0000    16930.0000   621676   76.59%
    531   292    16930.0000 22831     9587.0000    16930.0000   614718   76.59%
    572   302    16930.0000 22811     9587.0000    16930.0000   614738   76.59%
Elapsed time = 1134.80 sec. (1115389.51 ticks, tree = 489.29 MB, solutions = 17)
    598   342    16930.0000 25018     9587.0000    16930.0000   628221   76.59%
    637   317    16930.0000 22713     9587.0000    16930.0000   615532   76.59%
    675   509    16930.0000 22613     9587.0000    16930.0000   645283   76.59%
    707   443    16930.0000 22594     9587.0000    16930.0000   634218   76.59%
    736   522    16930.0000 22372     9587.0000    16930.0000   646039   76.59%
    763   376    16930.0000 24563     9587.0000    16930.0000   631124   76.59%
    811   455    16930.0000 26065     9587.0000    16930.0000   646986   76.59%
    846   468    16930.0000 22327     9587.0000    16930.0000   636294   76.59%
    896   642    16930.0000 27529     9587.0000    16930.0000   666205   76.59%
    943   767    16930.0000 21902     9587.0000    16930.0000   676571   76.59%
Elapsed time = 1165.40 sec. (1154271.08 ticks, tree = 1335.27 MB, solutions = 17)
    983   773    16930.0000 21558     9587.0000    16930.0000   677186   76.59%
   1030   832    16930.0000 24787     9587.0000    16930.0000   685080   76.59%
   1080   554    16930.0000 20221     9587.0000    16930.0000   652846   76.59%
   1139   735    16930.0000 24254     9587.0000    16930.0000   671594   76.59%
   1189   911    16930.0000 21966     9587.0000    16930.0000   701081   76.59%
   1241   573    16930.0000 26446     9587.0000    16930.0000   670271   76.59%
   1296   815    16930.0000 20580     9587.0000    16930.0000   681147   76.59%
   1341   877    16930.0000 23547     9587.0000    16930.0000   688050   76.59%
   1382   894    16930.0000 18870     9587.0000    16930.0000   697037   76.59%
   1427   901    16930.0000 23436     9587.0000    16930.0000   688198   76.59%
Elapsed time = 1200.08 sec. (1193457.05 ticks, tree = 1627.07 MB, solutions = 17)
   1483  1088    16930.0000 25151     9587.0000    16930.0000   724788   76.59%
   1535  1181    16930.0000 24072     9587.0000    16930.0000   725086   76.59%
   1584  1020    16930.0000 18815     9587.0000    16930.0000   721821   76.59%
   1631  1266    16930.0000 19366     9587.0000    16930.0000   735253   76.59%
   1687  1111    16930.0000 24678     9587.0000    16930.0000   727478   76.59%
   1736  1290    16930.0000 19316     9587.0000    16930.0000   735302   76.59%
   1782  1219    16930.0000 23333     9587.0000    16930.0000   727480   76.59%
   1824  1514    16930.0000 17016     9587.0000    16930.0000   758636   76.59%
   1851  1453    16930.0000 18087     9587.0000    16930.0000   751576   76.59%
   1881  1455    16930.0000 17531     9587.0000    16930.0000   753239   76.59%
Elapsed time = 1240.73 sec. (1232268.90 ticks, tree = 2748.70 MB, solutions = 17)
Nodefile size = 604.36 MB (120.31 MB after compression)
   1900  1370    16930.0000 17873     9587.0000    16930.0000   749146   76.59%
   1919  1465    16930.0000 16745     9587.0000    16930.0000   756284   76.59%
   1936  1471    16930.0000 16215     9587.0000    16930.0000   757324   76.59%
   1951  1551    16930.0000 15172     9587.0000    16930.0000   764654   76.59%
   1974  1888    16930.0000 16024     9587.0000    16930.0000   811503   76.59%
   1995  1842    16930.0000 16195     9587.0000    16930.0000   805140   76.59%
   2029  1773    16930.0000 17625     9587.0000    16930.0000   790714   76.59%
   2061  1833    16930.0000 15746     9587.0000    16930.0000   797105   76.59%
   2087  1958    16930.0000 23737     9587.0000    16930.0000   831804   76.59%
   2116  1973    16930.0000 14109     9587.0000    16930.0000   824184   76.59%
Elapsed time = 1283.28 sec. (1272326.20 ticks, tree = 3741.55 MB, solutions = 17)
Nodefile size = 1636.02 MB (309.28 MB after compression)
   2146  1973    16930.0000 23679     9587.0000    16930.0000   832484   76.59%
   2185  1997    16930.0000 16887     9587.0000    16930.0000   842644   76.59%
   2220  2023    16930.0000 14413     9587.0000    16930.0000   866783   76.59%
   2265  2001    16930.0000 23605     9587.0000    16930.0000   833084   76.59%
   2315  2031    16930.0000 15228     9587.0000    16930.0000   855348   76.59%
   2356  2041    16930.0000 15206     9587.0000    16930.0000   855370   76.59%
   2392  2135    16930.0000 13267     9587.0000    16930.0000   888882   76.59%
   2427  2059    16930.0000 15194     9587.0000    16930.0000   855944   76.59%
   2459  2068    16930.0000 14079     9587.0000    16930.0000   870044   76.59%
   2482  2074    16930.0000 13842     9587.0000    16930.0000   870776   76.59%
Elapsed time = 1309.85 sec. (1311826.80 ticks, tree = 3834.51 MB, solutions = 17)
Nodefile size = 1611.92 MB (304.26 MB after compression)
   2496  2159    16930.0000 12784     9587.0000    16930.0000   892052   76.59%
   2512  2168    16930.0000 12678     9587.0000    16930.0000   892389   76.59%

Performing restart 1

Repeating presolve.
Tried aggregator 1 time.
Reduced MIP has 307107 rows, 246735 columns, and 1105578 nonzeros.
Reduced MIP has 246033 binaries, 702 generals, 0 SOSs, and 0 indicators.
Presolve time = 0.30 sec. (642.23 ticks)
Tried aggregator 1 time.
Reduced MIP has 307107 rows, 246735 columns, and 1105578 nonzeros.
Reduced MIP has 246033 binaries, 702 generals, 0 SOSs, and 0 indicators.
Presolve time = 1.99 sec. (1636.04 ticks)
Represolve time = 3.81 sec. (3417.75 ticks)
   2514     0    16930.0000 81706     9587.0000    Cuts: 9993  1074651   76.59%
   2514     0    16930.0000 67181     9587.0000    Cuts: 9977  1112805   76.59%
   2514     0    16930.0000 58639     9587.0000    Cuts: 9966  1149086   76.59%
   2514     0    16930.0000 56251     9587.0000    Cuts: 9954  1182563   76.59%

Clique cuts applied:  149
Cover cuts applied:  1517
Implied bound cuts applied:  632
Flow cuts applied:  872
Mixed integer rounding cuts applied:  13621
Zero-half cuts applied:  817

Root node processing (before b&c):
  Real time             =  443.18 sec. (639107.67 ticks)
Parallel b&c, 8 threads:
  Real time             = 1356.92 sec. (1428844.37 ticks)
  Sync time (average)   =  180.31 sec.
  Wait time (average)   =    0.00 sec.
                          ------------
Total (root+branch&cut) = 1800.10 sec. (2067952.05 ticks)

<<< solve


OBJECTIVE: 9587

<<< post process


<<< done

